h 1 0
h 2 0
h -3 0
h -4 0
h 5 0
h 5 -6 7 0
h 4 -1 8 0
h 3 -2 9 0
h -5 6 10 0
h -4 1 11 0
h -3 2 12 0
h -8 -11 0
h -9 -12 0
h -7 -10 0
h -10 -6 0
h -12 -2 0
h -11 -1 0
h -8 1 0
h -9 2 0
h -7 6 0
h -8 -4 0
h -9 -3 0
h -7 -5 0
h -10 5 0
h -12 3 0
h -11 4 0
h -6 0
1 -7 0
1 -8 0
1 -9 0
2 -10 0
2 -11 0
2 -12 0
